benchmarks_vrp/CMT12/tsp_classic/CMT12_6.vrp
NAME: CMT12_6
TYPE: CVRP
COMMENT: 819.56 - Cluster Nr.6
DIMENSION: 14
CAPACITY: 200
EDGE_WEIGHT_TYPE: EUC_2D
NODE_COORD_TYPE: TWOD_COORDS
NODE_COORD_SECTION: 
3 45 68
10 40 50
8 45 65
9 60 60
7 45 70
6 40 66
11 38 68
12 40 69
13 42 66
14 42 68
4 42 65
5 60 80
2 55 80
1 58 75
DEPOT_SECTION: 
10
-1
DEMAND_SECTION: 
7 30
14 10
8 20
2 10
11 20
9 10
4 10
6 20
12 20
5 10
1 20
13 10
3 10
10 0
EOF
