benchmarks_vrp/CMT12/tsp_classic/CMT12_6.tour
NAME: CMT12_6 solution
TYPE: TOUR
TOUR_SECTION:
10 4 13 6 11 12 14 8 3 7 2 5 1 9 -1
-1
EOF